InboundTrucks  = 8;
OutboundTrucks = 5;
InboundDoors   = 4;
OutboundDoors  = 4;
ReleaseTime    = [25,58,14,22,0,80,80,37];
UnloadTime     = [24,35,23,35,44,38,13,21];
LoadTime       = [9,8,12,5,12];
TransferTime   = [| 46,26,13,23,19 | 32,30,30,0,46 | 23,0,0,35,44 | 50,0,19,0,13 | 38,49,31,0,22 | 30,44,12,15,0 | 0,0,40,43,17 | 15,0,29,40,50 |];
